r = [
0,88,169,185,40,44,78,64,126,160,72,134,197,186,73,185,164,50,75,64,158,45,130,121,103,62,0
];
p = [
0,15,10,27,7,19,14,2,15,5,8,12,30,15,4,30,20,22,25,14,29,30,14,20,23,8,0
];
e = [
0,11,20,17,9,15,16,3,1,5,3,1,2,16,16,4,6,18,5,6,11,3,17,11,4,11,0
];
d = [
0,356,383,437,183,306,375,279,372,304,303,269,415,310,382,491,451,323,235,372,422,194,278,235,400,329,506
];
d_bar = [
0,364,388,451,187,316,382,280,380,307,307,275,430,318,384,506,461,334,248,379,437,209,285,245,412,333,506
];
w = [
0,1.375,4,1.214285714,2.25,1.5,2.285714286,3,0.125,1.666666667,0.75,0.166666667,0.133333333,2,8,0.266666667,0.6,1.636363636,0.384615385,0.857142857,0.733333333,0.2,2.428571429,1.1,0.333333333,2.75,0
];
